
******************************************************************************
This program contains Ipopt, a library for large-scale nonlinear optimization.
 Ipopt is released as open source code under the Eclipse Public License (EPL).
         For more information visit http://projects.coin-or.org/Ipopt
******************************************************************************

This is Ipopt version 3.12.6, running with linear solver ma57.

Number of nonzeros in equality constraint Jacobian...:       34
Number of nonzeros in inequality constraint Jacobian.:        0
Number of nonzeros in Lagrangian Hessian.............:       17

Total number of variables............................:        9
                     variables with only lower bounds:        2
                variables with lower and upper bounds:        3
                     variables with only upper bounds:        0
Total number of equality constraints.................:        6
Total number of inequality constraints...............:        0
        inequality constraints with only lower bounds:        0
   inequality constraints with lower and upper bounds:        0
        inequality constraints with only upper bounds:        0

iter    objective    inf_pr   inf_du lg(mu)  ||d||  lg(rg) alpha_du alpha_pr  ls
   0  4.8533335e+03 8.00e-01 1.34e+01  -1.0 0.00e+00    -  0.00e+00 0.00e+00   0
Reallocating memory for MA57: lfact (388)
   1  4.6882259e+03 1.40e-01 8.42e+00  -1.0 3.56e-01    -  8.96e-01 1.00e+00f  1
   2  4.8815817e+03 5.84e-02 4.43e+00  -1.0 1.88e-01    -  2.38e-01 6.12e-01h  1
   3  5.0435510e+03 1.56e-02 1.90e+00  -1.0 2.66e-01    -  9.93e-01 8.64e-01h  1
   4  5.0746672e+03 4.46e-03 4.19e-02  -1.0 1.34e-01    -  1.00e+00 1.00e+00h  1
   5  5.0609359e+03 1.97e-03 1.35e-01  -1.7 3.08e-02    -  9.34e-01 1.00e+00f  1
   6  5.0552546e+03 2.11e-04 8.15e-03  -2.5 1.56e-02    -  1.00e+00 9.88e-01f  1
   7  5.0550132e+03 4.58e-06 2.96e-03  -3.8 2.76e-03    -  1.00e+00 9.93e-01h  1
   8  5.0550266e+03 1.07e-09 4.39e-07  -3.8 4.65e-05    -  1.00e+00 1.00e+00f  1
   9  5.0550120e+03 1.09e-09 1.25e-07  -5.7 2.91e-05    -  1.00e+00 1.00e+00f  1
iter    objective    inf_pr   inf_du lg(mu)  ||d||  lg(rg) alpha_du alpha_pr  ls
  10  5.0550118e+03 1.61e-13 2.14e-11  -8.6 3.54e-07    -  1.00e+00 1.00e+00h  1

Number of Iterations....: 10

                                   (scaled)                 (unscaled)
Objective...............:   1.0274414216171306e+02    5.0550117943562827e+03
Dual infeasibility......:   2.1363513002636402e-11    1.0510848397297110e-09
Constraint violation....:   1.6076029396572267e-13    1.6076029396572267e-13
Complementarity.........:   2.5320240873813000e-09    1.2457558509915997e-07
Overall NLP error.......:   2.5320240873813000e-09    1.2457558509915997e-07


Number of objective function evaluations             = 11
Number of objective gradient evaluations             = 11
Number of equality constraint evaluations            = 11
Number of inequality constraint evaluations          = 0
Number of equality constraint Jacobian evaluations   = 11
Number of inequality constraint Jacobian evaluations = 0
Number of Lagrangian Hessian evaluations             = 10
Total CPU secs in IPOPT (w/o function evaluations)   =      0.003
Total CPU secs in NLP function evaluations           =      0.000

EXIT: Optimal Solution Found.

************************ CUTEst statistics ************************


 Package used            :  IPOPT
 Problem                 :  HS107     
 # variables             =               9
 # constraints           =               6
 # objective functions   =        0.2300000E+02
 # objective gradients   =        0.1200000E+02
 # objective Hessians    =        0.1100000E+02
 # Hessian-vector prdct  =        0.0000000E+00
 # constraints functions =        0.2400000E+02
 # constraints gradients =        0.1300000E+02
 # constraints Hessians  =        0.1100000E+02
 Exit code               =               0
 Final f                 =   0.5055012E+04
 Set up time             =            0.00 seconds
 Solve time              =            0.02 seconds


******************************************************************

System Time =       0.0049999999 s.
